data;

param numPeriods := 3;

param numCrews= 3;

set N := 1 2 3 4 5;

set E:= (1,2) (2,3) (3,4) (2,4) (4,5);

set F[1,2] = (1,2);

set F[2,3] = (1,2) (3,4) (2,4);

set F[3,4] = (2,3) (2,4) (4,5);

set F[2,4] = (1,2) (2,3) (3,4) (4,5);

set F[4,5] = (3,4) (2,4);

param workload:= 1 2   0   2 3   3   3 4   0   2 4   3   4 5   4;

param functionality:= 1 2   1   2 3   0   3 4   0   2 4   0   4 5   0;